Assets/LKHProbs~/bomb.7.tsp
NAME : GeneratedProblem
COMMENT : SVGCrosshatch
TYPE : TSP
DIMENSION : 11
EDGE_WEIGHT_TYPE : EUC_2D
NODE_COORD_SECTION
1 7000 11300
2 7000 11400
3 7100 10900
4 7200 10900
5 7300 10900
6 7400 10900
7 7500 10800
8 7600 10800
9 7700 10700
10 7700 10800
11 7800 10700
EOF
