Assets/LKHProbs~/bomb.7.out.txt
NAME : bomb.7.tour
COMMENT : Length = 479929
COMMENT : Found by LKH [Keld Helsgaun] At some point in time
TYPE : TOUR
DIMENSION : TODO add valid length
TOUR_SECTION
1
2
10
11
9
8
7
6
5
4
3
-1
EOF
